c Created with the Wolfram Language : www.wolfram.com
c 
p edge 60 344
e 1 3
e 1 5
e 5 6
e 2 7
e 6 8
e 2 9
e 4 9
e 2 10
e 7 10
e 3 11
e 6 11
e 9 11
e 2 12
e 3 12
e 4 12
e 7 12
e 2 13
e 7 13
e 7 14
e 8 14
e 9 14
e 4 15
e 8 15
e 6 16
e 11 16
e 15 16
e 5 17
e 6 17
e 9 17
e 2 18
e 4 18
e 5 18
e 13 18
e 7 19
e 14 19
e 6 20
e 16 20
e 7 21
e 8 21
e 15 21
e 20 21
e 6 22
e 7 22
e 12 22
e 13 22
e 15 22
e 16 22
e 5 23
e 9 23
e 14 23
e 16 23
e 17 23
e 2 24
e 4 24
e 11 24
e 13 24
e 16 24
e 3 25
e 4 25
e 20 25
e 23 25
e 4 26
e 12 26
e 15 26
e 21 26
e 22 26
e 1 27
e 12 27
e 25 27
e 5 28
e 13 28
e 18 28
e 21 28
e 23 28
e 27 28
e 2 29
e 9 29
e 14 29
e 25 29
e 5 30
e 13 30
e 14 30
e 16 30
e 17 30
e 19 30
e 22 30
e 24 30
e 3 31
e 7 31
e 9 31
e 14 31
e 19 31
e 23 31
e 4 32
e 8 32
e 11 32
e 16 32
e 21 32
e 30 32
e 2 33
e 3 33
e 8 33
e 13 33
e 22 33
e 25 33
e 26 33
e 32 33
e 2 34
e 4 34
e 8 34
e 14 34
e 17 34
e 20 34
e 26 34
e 31 34
e 32 34
e 5 35
e 6 35
e 10 35
e 11 35
e 12 35
e 19 35
e 20 35
e 28 35
e 9 36
e 11 36
e 14 36
e 15 36
e 17 36
e 21 36
e 31 36
e 32 36
e 18 37
e 25 37
e 33 37
e 34 37
e 12 38
e 14 38
e 15 38
e 16 38
e 17 38
e 21 38
e 23 38
e 1 39
e 9 39
e 14 39
e 21 39
e 25 39
e 29 39
e 32 39
e 38 39
e 5 40
e 15 40
e 17 40
e 22 40
e 36 40
e 37 40
e 17 41
e 20 41
e 21 41
e 25 41
e 30 41
e 31 41
e 32 41
e 33 41
e 35 41
e 37 41
e 40 41
e 13 42
e 19 42
e 28 42
e 30 42
e 37 42
e 3 43
e 7 43
e 8 43
e 9 43
e 20 43
e 27 43
e 30 43
e 39 43
e 1 44
e 2 44
e 5 44
e 8 44
e 20 44
e 22 44
e 27 44
e 32 44
e 1 45
e 7 45
e 12 45
e 16 45
e 22 45
e 24 45
e 28 45
e 30 45
e 35 45
e 36 45
e 41 45
e 44 45
e 4 46
e 8 46
e 12 46
e 13 46
e 15 46
e 26 46
e 29 46
e 31 46
e 39 46
e 41 46
e 42 46
e 44 46
e 7 47
e 21 47
e 26 47
e 27 47
e 30 47
e 38 47
e 43 47
e 11 48
e 13 48
e 17 48
e 35 48
e 36 48
e 40 48
e 42 48
e 43 48
e 3 49
e 4 49
e 10 49
e 14 49
e 39 49
e 40 49
e 46 49
e 48 49
e 1 50
e 11 50
e 14 50
e 21 50
e 27 50
e 29 50
e 34 50
e 35 50
e 41 50
e 44 50
e 4 51
e 8 51
e 9 51
e 14 51
e 19 51
e 23 51
e 34 51
e 43 51
e 46 51
e 7 52
e 9 52
e 10 52
e 14 52
e 16 52
e 17 52
e 18 52
e 23 52
e 24 52
e 32 52
e 35 52
e 38 52
e 41 52
e 44 52
e 9 53
e 13 53
e 16 53
e 32 53
e 33 53
e 38 53
e 39 53
e 46 53
e 49 53
e 5 54
e 8 54
e 15 54
e 18 54
e 19 54
e 20 54
e 29 54
e 32 54
e 35 54
e 39 54
e 47 54
e 51 54
e 1 55
e 2 55
e 7 55
e 17 55
e 23 55
e 25 55
e 28 55
e 41 55
e 48 55
e 1 56
e 4 56
e 6 56
e 9 56
e 11 56
e 20 56
e 24 56
e 27 56
e 37 56
e 41 56
e 50 56
e 20 57
e 35 57
e 37 57
e 42 57
e 43 57
e 2 58
e 5 58
e 9 58
e 24 58
e 25 58
e 27 58
e 37 58
e 39 58
e 43 58
e 47 58
e 4 59
e 6 59
e 20 59
e 27 59
e 35 59
e 42 59
e 44 59
e 47 59
e 48 59
e 2 60
e 6 60
e 14 60
e 19 60
e 25 60
e 26 60
e 30 60
e 37 60
e 38 60
e 57 60
